
  32    4
  10   10   10   10

   0   0   0   0   0  13 2 3 4 5 6 7 11 12 27 28 29 30 31 
   5   2   1   0   2   8 26 20 19 16 15 14 13 10 
  10   0   7   1   4   7 23 22 21 19 18 15 14 
   3   1   0   8   2   7 25 23 22 19 17 15 13 
   1   2   6   0   1   4 24 21 18 8 
   4   5   2   0   6   3 20 17 9 
   3   0   4   5   4   3 18 14 13 
   5  10   0   5   4   2 14 13 
   9   5   8   0   3   1 16 
  10   5   5   0   5   1 17 
   9   4   4   0   4   1 16 
   1   2   5   0   1   1 15 
   3   2   3   0   3   1 32
   3   3   5   4   0   1 32
   1   3   2   2   0   1 32
   2   3   0   2   4   1 32
   3   0   3   1   5   1 32
  10   4   3   0   3   1 32
   9   4   5   0   4   1 32
   5   0   4   5  10   1 32
   8   4   4   0   4   1 32
   4   8   2   0   2   1 32
   2   4   2   4   0   1 32
   4   4   0   2   3   1 32
   1   5   3   0   5   1 32
   5   4   4   0   5   1 32
   6   4   0   6   3   1 32
   3   0   6   5   6   1 32
   9   4   5   7   0   1 32
   6   5   0   3   7   1 32
   4   3   3   4   0   1 32
   0   0   0   0   0   0 
